c Sudoku solution
p cnf 729 0
127 0
134 0
158 0
161 0
255 0
266 0
289 0
344 0
383 0
449 0
119 0
143 0
491 0
537 0
565 0
573 0
636 0
752 0
823 0
872 0
881 0
897 0
948 0
959 0
741 0
845 0
856 0
864 0
818 0
839 0
735 0
546 0
357 0
242 0
369 0
277 0
371 0
294 0
398 0
332 0
931 0
647 0
487 0
476 0
175 0
974 0
996 0
793 0
985 0
788 0
779 0
767 0
963 0
917 0
922 0
678 0
528 0
433 0
629 0
454 0
653 0
551 0
425 0
412 0
468 0
662 0
514 0
611 0
582 0
599 0
684 0
695 0
213 0
221 0
238 0
716 0
724 0
315 0
326 0
186 0
192 0
